# Solution for model Path_planning
# Objective value = 5.7610315833844661e+00
U_0 0
ux_0 0
uy_0 0
uz_0 0
Vx_0 7.1399999910591083e-01
Vy_0 -8.2640000004470338e+00
Vz_0 3.6699999983608720e+00
Px_0 8.913
Py_0 14.642
Pz_0 0.41
U_1 8.4346147735037285e+00
ux_1 -2.1419999973176922e+00
uy_1 3.5343466151115477e+00
uz_1 -8.3939999909698955e+00
Vx_1 7.1399999910591083e-01
Vy_1 -8.2640000004470338e+00
Vz_1 3.6699999983608720e+00
Px_1 9.2699999995529563e+00
Py_1 1.0509999999776483e+01
Pz_1 2.2449999991804361e+00
U_2 3.8849601602681845e+00
ux_2 7.1399999910587064e-01
uy_2 3.8849601602681854e+00
uz_2 1.0539999942481515e+00
Vx_2 -3.5699999955293532e-01
Vy_2 -6.4968266928912604e+00
Vz_2 -5.2699999712407575e-01
Px_2 9.3592499994411984e+00
Py_2 6.8197933264419088e+00
Pz_2 3.0307499994896352e+00
U_3 8.4310398374966482e+00
ux_3 -6.7648838293575118e+00
uy_3 8.4310398374966482e+00
uz_3 -1.6359999999403954e+00
Vx_3 0
Vy_3 -4.5543466127571675e+00
Vz_3 0
Px_3 9.2699999995529652e+00
Py_3 4.0570000000298023e+00
Pz_3 2.8990000002086163e+00
U_4 1.6359999999403954e+00
ux_4 -7.7853485101393325e+00
uy_4 6.7765338801769115e-01
uz_4 1.6359999999403954e+00
Vx_4 -3.3824419146787559e+00
Vy_4 -3.3882669400884557e-01
Vz_4 -8.1799999997019768e-01
Px_4 8.4243895208832758e+00
Py_4 2.8337066733382987e+00
Pz_4 2.6945000002160668e+00
U_5 7.0873624857045812e+00
ux_5 9.4853485131195789e+00
uy_5 7.0873624857045812e+00
uz_5 -1.0160000026226044e+00
Vx_5 -7.2751161697484221e+00
Vy_5 0
Vz_5 0
Px_5 5.7599999997764826e+00
Py_5 2.7489999998360872e+00
Pz_5 2.4900000002235174e+00
U_6 5.4099125487275099e+00
ux_6 5.0648838263772742e+00
uy_6 5.4099125487275090e+00
uz_6 1.0160000026226044e+00
Vx_6 -2.5324419131886371e+00
Vy_6 3.5436812428522906e+00
Vz_6 -5.0800000131130219e-01
Px_6 3.3081104790422171e+00
Py_6 3.6349203105491599e+00
Pz_6 2.3629999998956919e+00
U_7 4.9599999934435335e-01
ux_7 4.4799999892711639e-01
uy_7 2.0544992666547746e-01
uz_7 4.9599999934435335e-01
Vx_7 0
Vy_7 6.2486375172160438e+00
Vz_7 0
Px_7 2.6750000007450581e+00
Py_7 6.0830000005662441e+00
Pz_7 2.2359999995678663e+00
U_8 1.1974499253541859e+00
ux_8 -4.4799999892712350e-01
uy_8 -1.1974499253541877e+00
uz_8 -4.9599999934435335e-01
Vx_8 2.2399999946355820e-01
Vy_8 6.3513624805487838e+00
Vz_8 2.4799999967217667e-01
Px_8 2.7310000006109476e+00
Py_8 9.2330000000074506e+00
Pz_8 2.2979999994859104e+00
U_9 1.4513912554598544e+01
ux_9 1.4469999998807907e+01
uy_9 -1.4513912554598544e+01
uz_9 -5.0480000004172281e+00
Vx_9 0
Vy_9 5.7526375178716904e+00
Vz_9 0
Px_9 2.7870000004768372e+00
Py_9 1.2258999999612570e+01
Pz_9 2.3599999994039536e+00
U_10 5.0480000004172387e+00
ux_10 -1.4469999998807907e+01
uy_10 1.0863752034528035e-01
uz_10 5.0480000004172298e+00
Vx_10 7.2349999994039536e+00
Vy_10 -1.5043187594275811e+00
Vz_10 -2.5240000002086149e+00
Px_10 4.5957500003278255e+00
Py_10 1.3321079689223597e+01
Pz_10 1.7289999993517995e+00
U_11 0
ux_11 0
uy_11 0
uz_11 -1.1368683772161603e-13
Vx_11 0
Vy_11 -1.4499999992549419e+00
Vz_11 0
Px_11 6.4045000001788139e+00
Py_11 1.2582499999552965e+01
Pz_11 1.0979999992996454e+00
U_12 1.8406359263386323e+00
ux_12 -1.0581803020634348e+01
uy_12 -1.5400375214210626e-01
uz_12 -1.7996822178306893e-02
Vx_12 0
Vy_12 -1.4499999992549419e+00
Vz_12 0
Px_12 6.4045000001788139e+00
Py_12 1.1857499999925494e+01
Pz_12 1.0979999992996312e+00
U_13 1.0797992498189295e+01
ux_13 3.7894090616646263e+00
uy_13 -1.0797992498189295e+01
uz_13 4.2699936491846460e+00
Vx_13 -5.2909015103171742e+00
Vy_13 -1.5270018753259951e+00
Vz_13 -8.9984110891534463e-03
Px_13 5.0817746225995206e+00
Py_13 1.1113249531280260e+01
Pz_13 1.0957503965273427e+00
U_14 1.3851996248841285e+01
ux_14 3.7584787917939444e+01
uy_14 1.3851996248841285e+01
uz_14 -4.2519968270063391e+00
Vx_14 -3.3961969794848610e+00
Vy_14 -6.9259981244206426e+00
Vz_14 2.1259984135031695e+00
Px_14 2.9100000001490116e+00
Py_14 8.9999995313436010e+00
Pz_14 1.6250003971308469e+00
U_15 8.4852813742382054e+00
ux_15 -4.4864787919131537e+01
uy_15 7.9999999999998295e+00
uz_15 -3.9999999999998934e+00
Vx_15 1.5396196979484861e+01
Vy_15 0
Vz_15 0
Px_15 5.9100000001490116e+00
Py_15 7.2685000002384399e+00
Pz_15 2.1565000005066395e+00
U_16 1.3494000002741974e+01
ux_16 2.4760590942805720e+01
uy_16 1.3494000002741974e+01
uz_16 1.0139999985692754e+00
Vx_16 -7.0361969800809074e+00
Vy_16 3.9999999999999467e+00
Vz_16 -1.9999999999999467e+00
Px_16 8
Py_16 8.2685000002384186e+00
Pz_16 1.6565000005066528e+00
U_17 2.1494000002741867e+01
ux_17 -1.0688196982643907e+01
uy_17 -2.1494000002741867e+01
uz_17 2.9860000014306181e+00
Vx_17 5.3440984913219536e+00
Vy_17 1.0747000001370933e+01
Vz_17 -1.4930000007153090e+00
Px_17 7.5769753778102613e+00
Py_17 1.1955250000581138e+01
Pz_17 7.8325000032783887e-01
U_18 0
ux_18 0
uy_18 0
uz_18 0
Vx_18 0
Vy_18 0
Vz_18 0
Px_18 8.9130000006407499e+00
Py_18 1.4642000000923872e+01
Pz_18 4.1000000014901161e-01
U_19 0
ux_19 0
uy_19 0
uz_19 0
Vx_19 0
Vy_19 0
Vz_19 0
Px_19 8.9130000006407499e+00
Py_19 1.4642000000923872e+01
Pz_19 4.1000000014901161e-01
U_20 0
ux_20 0
uy_20 0
uz_20 0
Vx_20 0
Vy_20 0
Vz_20 0
Px_20 8.9130000006407499e+00
Py_20 1.4642000000923872e+01
Pz_20 4.1000000014901161e-01
b_0_0 0
b_0_1 0
b_0_2 0
b_0_3 0
b_0_4 0
b_0_5 0
b_0_6 0
b_0_7 0
b_0_8 0
b_0_9 0
b_0_10 0
b_0_11 0
b_0_12 0
b_0_13 0
b_0_14 0
b_0_15 0
b_0_16 0
b_0_17 0
b_0_18 0
b_0_19 0
b_0_20 0
b_1_0 0
b_1_1 1
b_1_2 0
b_1_3 0
b_1_4 0
b_1_5 0
b_1_6 0
b_1_7 0
b_1_8 0
b_1_9 0
b_1_10 0
b_1_11 0
b_1_12 0
b_1_13 0
b_1_14 0
b_1_15 0
b_1_16 0
b_1_17 0
b_1_18 0
b_1_19 0
b_1_20 0
b_2_0 0
b_2_1 0
b_2_2 0
b_2_3 1
b_2_4 0
b_2_5 0
b_2_6 0
b_2_7 0
b_2_8 0
b_2_9 0
b_2_10 0
b_2_11 0
b_2_12 0
b_2_13 0
b_2_14 0
b_2_15 0
b_2_16 0
b_2_17 0
b_2_18 0
b_2_19 0
b_2_20 0
b_3_0 0
b_3_1 0
b_3_2 0
b_3_3 0
b_3_4 0
b_3_5 1
b_3_6 0
b_3_7 0
b_3_8 0
b_3_9 0
b_3_10 0
b_3_11 0
b_3_12 0
b_3_13 0
b_3_14 0
b_3_15 0
b_3_16 0
b_3_17 0
b_3_18 0
b_3_19 0
b_3_20 0
b_4_0 0
b_4_1 0
b_4_2 0
b_4_3 0
b_4_4 0
b_4_5 0
b_4_6 0
b_4_7 1
b_4_8 0
b_4_9 0
b_4_10 0
b_4_11 0
b_4_12 0
b_4_13 0
b_4_14 0
b_4_15 0
b_4_16 0
b_4_17 0
b_4_18 0
b_4_19 0
b_4_20 0
b_5_0 0
b_5_1 0
b_5_2 0
b_5_3 0
b_5_4 0
b_5_5 0
b_5_6 0
b_5_7 0
b_5_8 0
b_5_9 1
b_5_10 0
b_5_11 0
b_5_12 0
b_5_13 0
b_5_14 0
b_5_15 0
b_5_16 0
b_5_17 0
b_5_18 0
b_5_19 0
b_5_20 0
b_6_0 0
b_6_1 0
b_6_2 0
b_6_3 0
b_6_4 0
b_6_5 0
b_6_6 0
b_6_7 0
b_6_8 0
b_6_9 0
b_6_10 0
b_6_11 1
b_6_12 0
b_6_13 0
b_6_14 0
b_6_15 0
b_6_16 0
b_6_17 0
b_6_18 0
b_6_19 0
b_6_20 0
b_7_0 0
b_7_1 0
b_7_2 0
b_7_3 0
b_7_4 0
b_7_5 0
b_7_6 0
b_7_7 0
b_7_8 0
b_7_9 0
b_7_10 0
b_7_11 0
b_7_12 1
b_7_13 0
b_7_14 0
b_7_15 0
b_7_16 0
b_7_17 0
b_7_18 0
b_7_19 0
b_7_20 0
b_8_0 0
b_8_1 0
b_8_2 0
b_8_3 0
b_8_4 0
b_8_5 0
b_8_6 0
b_8_7 0
b_8_8 0
b_8_9 0
b_8_10 0
b_8_11 0
b_8_12 0
b_8_13 0
b_8_14 1
b_8_15 0
b_8_16 0
b_8_17 0
b_8_18 0
b_8_19 0
b_8_20 0
b_9_0 0
b_9_1 0
b_9_2 0
b_9_3 0
b_9_4 0
b_9_5 0
b_9_6 0
b_9_7 0
b_9_8 0
b_9_9 0
b_9_10 0
b_9_11 0
b_9_12 0
b_9_13 0
b_9_14 0
b_9_15 1
b_9_16 0
b_9_17 0
b_9_18 0
b_9_19 0
b_9_20 0
b_10_0 0
b_10_1 0
b_10_2 0
b_10_3 0
b_10_4 0
b_10_5 0
b_10_6 0
b_10_7 0
b_10_8 0
b_10_9 0
b_10_10 0
b_10_11 0
b_10_12 0
b_10_13 0
b_10_14 0
b_10_15 0
b_10_16 1
b_10_17 0
b_10_18 0
b_10_19 0
b_10_20 0
b_11_0 0
b_11_1 0
b_11_2 0
b_11_3 0
b_11_4 0
b_11_5 0
b_11_6 0
b_11_7 0
b_11_8 0
b_11_9 0
b_11_10 0
b_11_11 0
b_11_12 0
b_11_13 0
b_11_14 0
b_11_15 0
b_11_16 0
b_11_17 0
b_11_18 1
b_11_19 0
b_11_20 0
Tsim 9
